datasets/15l1i.nl
g3 3 1 0	# problem 15l1i
 58 37 1 0 16	# vars, constraints, objectives, ranges, eqns
 0 1	# nonlinear constraints, objectives
 0 0	# network constraints: nonlinear, linear
 0 24 0	# nonlinear vars in constraints, objectives, both
 0 0 0 1	# linear network variables; functions; arith, flags
 0 34 0 0 24	# discrete variables: binary, integer, nonlinear (b,c,o)
 224 54	# nonzeros in Jacobian, gradients
 0 0	# max name lengths: constraints, variables
 0 0 0 0 0	# common exprs: b,c,o,c1,o1
b
2 0
2 0
2 0
2 0
2 0
2 0
2 0
2 0
2 0
2 0
2 0
2 0
2 0
2 0
2 0
2 0
2 0
2 0
2 0
2 0
2 0
2 0
2 0
2 0
0 0 70
0 0 70
0 0 70
0 0 70
0 0 70
0 0 70
0 0 40
0 0 40
0 0 40
0 0 40
0 0 40
0 0 40
0 0 40
0 0 40
0 0 40
0 0 40
0 0 40
0 0 40
0 0 50
0 0 50
0 0 50
0 0 50
0 0 50
0 0 50
0 0 91
0 0 79
0 0 94
0 0 78
0 0 78
0 0 134
0 0 100
0 0 90
0 0 100
0 0 100
r
4 70
4 40
4 40
4 50
4 200
4 0
4 0
4 0
4 0
4 0
4 0
4 -110
4 -90
4 -140
4 -160
4 100
1 91
1 79
1 94
1 78
1 78
1 134
1 110
1 90
1 140
1 160
1 70
1 40
1 40
1 50
1 200
1 91
1 79
1 94
1 78
1 78
1 134
C0
n0
C1
n0
C2
n0
C3
n0
C4
n0
C5
n0
C6
n0
C7
n0
C8
n0
C9
n0
C10
n0
C11
n0
C12
n0
C13
n0
C14
n0
C15
n0
C16
n0
C17
n0
C18
n0
C19
n0
C20
n0
C21
n0
C22
n0
C23
n0
C24
n0
C25
n0
C26
n0
C27
n0
C28
n0
C29
n0
C30
n0
C31
n0
C32
n0
C33
n0
C34
n0
C35
n0
C36
n0
O0 0
o54
4
o2
n10000
o5
o16
o3
o54
6
v0
v4
v8
v12
v16
v20
n-110
n2
o2
n10000
o5
o16
o3
o54
6
v1
v5
v9
v13
v17
v21
n-90
n2
o2
n10000
o5
o16
o3
o54
6
v2
v6
v10
v14
v18
v22
n-140
n2
o2
n10000
o5
o16
o3
o54
6
v3
v7
v11
v15
v19
v23
n-160
n2
k57
4
8
12
16
20
24
28
32
36
40
44
48
52
56
60
64
68
72
76
80
84
88
92
96
100
104
108
112
116
120
124
128
132
136
140
144
148
152
156
160
164
168
172
176
180
184
188
192
196
200
204
208
212
216
218
220
222
J0 6
24 1
25 1
26 1
27 1
28 1
29 1
J1 6
30 1
31 1
32 1
33 1
34 1
35 1
J2 6
36 1
37 1
38 1
39 1
40 1
41 1
J3 6
42 1
43 1
44 1
45 1
46 1
47 1
J4 6
48 1
49 1
50 1
51 1
52 1
53 1
J5 9
0 1
1 1
2 1
3 1
24 -1
30 -1
36 -1
42 -1
48 -1
J6 9
4 1
5 1
6 1
7 1
25 -1
31 -1
37 -1
43 -1
49 -1
J7 9
8 1
9 1
10 1
11 1
26 -1
32 -1
38 -1
44 -1
50 -1
J8 9
12 1
13 1
14 1
15 1
27 -1
33 -1
39 -1
45 -1
51 -1
J9 9
16 1
17 1
18 1
19 1
28 -1
34 -1
40 -1
46 -1
52 -1
J10 9
20 1
21 1
22 1
23 1
29 -1
35 -1
41 -1
47 -1
53 -1
J11 7
0 -1
4 -1
8 -1
12 -1
16 -1
20 -1
54 -1
J12 7
1 -1
5 -1
9 -1
13 -1
17 -1
21 -1
55 -1
J13 7
2 -1
6 -1
10 -1
14 -1
18 -1
22 -1
56 -1
J14 7
3 -1
7 -1
11 -1
15 -1
19 -1
23 -1
57 -1
J15 4
54 1
55 1
56 1
57 1
J16 5
24 1
30 1
36 1
42 1
48 1
J17 5
25 1
31 1
37 1
43 1
49 1
J18 5
26 1
32 1
38 1
44 1
50 1
J19 5
27 1
33 1
39 1
45 1
51 1
J20 5
28 1
34 1
40 1
46 1
52 1
J21 5
29 1
35 1
41 1
47 1
53 1
J22 6
0 1
4 1
8 1
12 1
16 1
20 1
J23 6
1 1
5 1
9 1
13 1
17 1
21 1
J24 6
2 1
6 1
10 1
14 1
18 1
22 1
J25 6
3 1
7 1
11 1
15 1
19 1
23 1
J26 6
24 1
25 1
26 1
27 1
28 1
29 1
J27 6
30 1
31 1
32 1
33 1
34 1
35 1
J28 6
36 1
37 1
38 1
39 1
40 1
41 1
J29 6
42 1
43 1
44 1
45 1
46 1
47 1
J30 6
48 1
49 1
50 1
51 1
52 1
53 1
J31 4
0 1
1 1
2 1
3 1
J32 4
4 1
5 1
6 1
7 1
J33 4
8 1
9 1
10 1
11 1
J34 4
12 1
13 1
14 1
15 1
J35 4
16 1
17 1
18 1
19 1
J36 4
20 1
21 1
22 1
23 1
G0 54
0 437
1 978
2 152
3 891
4 316
5 863
6 287
7 479
8 592
9 140
10 256
11 114
12 912
13 164
14 956
15 938
16 620
17 443
18 228
19 747
20 571
21 162
22 238
23 598
24 180
25 661
26 971
27 487
28 101
29 489
30 665
31 205
32 871
33 921
34 576
35 802
36 501
37 829
38 655
39 261
40 301
41 369
42 962
43 915
44 370
45 555
46 561
47 826
48 351
49 801
50 395
51 824
52 819
53 848
