datasets/15l1i.sol
 
couenne: Optimal

Options
3
3
1
0
37
0
58
58
20.999999999999996
0
70
0
55
0
0
0
0
0
0
94
0
78
0
0
0
0
70
0
0
11.999999999999996
0
0
0
0
0
0
70
0
0
40
0
0
0
0
0
0
0
28.000000000000018
0
11.999999999999977
0
0
0
50
0
0
91
15
94
0
0
0
34.00000000000001
0
0
66
objno 0 3
